(benchmark test
:extrafuns ((x0 BitVec[16]))
:extrafuns ((x1 BitVec[16]))
:extrafuns ((x10 BitVec[16]))
:extrafuns ((x100 BitVec[16]))
:extrafuns ((x102 BitVec[16]))
:extrafuns ((x104 BitVec[16]))
:extrafuns ((x11 BitVec[16]))
:extrafuns ((x110 BitVec[16]))
:extrafuns ((x12 BitVec[16]))
:extrafuns ((x13 BitVec[16]))
:extrafuns ((x14 BitVec[16]))
:extrafuns ((x15 BitVec[16]))
:extrafuns ((x16 BitVec[16]))
:extrafuns ((x17 BitVec[16]))
:extrafuns ((x18 BitVec[16]))
:extrafuns ((x19 BitVec[16]))
:extrafuns ((x2 BitVec[16]))
:extrafuns ((x20 BitVec[16]))
:extrafuns ((x21 BitVec[16]))
:extrafuns ((x22 BitVec[16]))
:extrafuns ((x23 BitVec[16]))
:extrafuns ((x24 BitVec[16]))
:extrafuns ((x26 BitVec[16]))
:extrafuns ((x27 BitVec[16]))
:extrafuns ((x28 BitVec[16]))
:extrafuns ((x29 BitVec[16]))
:extrafuns ((x3 BitVec[16]))
:extrafuns ((x30 BitVec[16]))
:extrafuns ((x31 BitVec[16]))
:extrafuns ((x32 BitVec[16]))
:extrafuns ((x33 BitVec[16]))
:extrafuns ((x34 BitVec[16]))
:extrafuns ((x35 BitVec[16]))
:extrafuns ((x36 BitVec[16]))
:extrafuns ((x37 BitVec[16]))
:extrafuns ((x38 BitVec[16]))
:extrafuns ((x39 BitVec[16]))
:extrafuns ((x4 BitVec[16]))
:extrafuns ((x40 BitVec[16]))
:extrafuns ((x41 BitVec[16]))
:extrafuns ((x42 BitVec[16]))
:extrafuns ((x43 BitVec[16]))
:extrafuns ((x44 BitVec[16]))
:extrafuns ((x45 BitVec[16]))
:extrafuns ((x46 BitVec[16]))
:extrafuns ((x47 BitVec[16]))
:extrafuns ((x48 BitVec[16]))
:extrafuns ((x49 BitVec[16]))
:extrafuns ((x5 BitVec[16]))
:extrafuns ((x50 BitVec[16]))
:extrafuns ((x51 BitVec[16]))
:extrafuns ((x52 BitVec[16]))
:extrafuns ((x53 BitVec[16]))
:extrafuns ((x54 BitVec[16]))
:extrafuns ((x55 BitVec[16]))
:extrafuns ((x56 BitVec[16]))
:extrafuns ((x57 BitVec[16]))
:extrafuns ((x58 BitVec[16]))
:extrafuns ((x59 BitVec[16]))
:extrafuns ((x6 BitVec[16]))
:extrafuns ((x60 BitVec[16]))
:extrafuns ((x61 BitVec[16]))
:extrafuns ((x62 BitVec[16]))
:extrafuns ((x63 BitVec[16]))
:extrafuns ((x64 BitVec[16]))
:extrafuns ((x65 BitVec[16]))
:extrafuns ((x67 BitVec[16]))
:extrafuns ((x69 BitVec[16]))
:extrafuns ((x7 BitVec[16]))
:extrafuns ((x70 BitVec[16]))
:extrafuns ((x71 BitVec[16]))
:extrafuns ((x72 BitVec[16]))
:extrafuns ((x73 BitVec[16]))
:extrafuns ((x74 BitVec[16]))
:extrafuns ((x75 BitVec[16]))
:extrafuns ((x76 BitVec[16]))
:extrafuns ((x77 BitVec[16]))
:extrafuns ((x78 BitVec[16]))
:extrafuns ((x79 BitVec[16]))
:extrafuns ((x8 BitVec[16]))
:extrafuns ((x80 BitVec[16]))
:extrafuns ((x81 BitVec[16]))
:extrafuns ((x82 BitVec[16]))
:extrafuns ((x83 BitVec[16]))
:extrafuns ((x85 BitVec[16]))
:extrafuns ((x86 BitVec[16]))
:extrafuns ((x88 BitVec[16]))
:extrafuns ((x89 BitVec[16]))
:extrafuns ((x9 BitVec[16]))
:extrafuns ((x90 BitVec[16]))
:extrafuns ((x91 BitVec[16]))
:extrafuns ((x92 BitVec[16]))
:extrafuns ((x93 BitVec[16]))
:extrafuns ((x94 BitVec[16]))
:extrafuns ((x95 BitVec[16]))
:extrafuns ((x96 BitVec[16]))
:extrafuns ((x97 BitVec[16]))
:extrafuns ((x98 BitVec[16]))
:extrafuns ((x99 BitVec[16]))

:exists( x1 x10 x11 x12 x13 x14 x15 x16 x17 x18 x19 x2 x20 x21 x22 x23 x24 x26 x27 x28 x29 x3 x30 x31 x32 x33 x34 x35 x36 x37 x38 x39 x4 x40 x41 x42 x43 x44 x45 x46 x47 x48 x49 x5 x50 x51 x52 x53 x54 x55 x56 x57 x58 x59 x6 x60 x61 x62 x63 x64 x65 x67 x69 x7 x70 x71 x72 x73 x74 x75 x76 x77 x78 x79 x8 x80 x81 x82 x83 x85 x86 x88 x89 x9 x90 x91 x92 x93 x94 x95 x96 x97 x98 x99)

:formula (and (and (and (and (and (and (and (and (and (and (and (and (and (and (and (and (and (and (and (and (and (and (and (and (and (and (and (and (and (and (and (and (and (and (and (and (and (and (and (and (and (and (and (and (and (and (and (and (and (and (and (and (and (and (and (and (and (and (and (and (and (and (and (and (and (and (and (and (and (and (and (and (and (and (and (and (and (and (and (and (and (and (and (and (and (and (and (and (and (and (and (and (and (and (and (and (bvuge (bvadd (bvadd (bvmul bv65535[16]  x0 ) x33 ) bv32768[16]  ) bv32769[16]  ) (bvuge (bvadd (bvadd (bvmul bv65535[16]  x30 ) x31 ) bv32768[16]  ) bv32769[16]  ) ) (bvuge (bvadd (bvadd (bvmul bv65535[16]  x42 ) x45 ) bv32768[16]  ) bv32769[16]  ) ) (bvuge (bvadd (bvadd (bvmul bv65535[16]  x54 ) x57 ) bv32768[16]  ) bv32769[16]  ) ) (bvuge (bvadd (bvadd (bvmul bv65535[16]  x71 ) x72 ) bv32768[16]  ) bv32769[16]  ) ) (bvuge (bvadd (bvadd (bvmul bv65535[16]  x90 ) x91 ) bv32768[16]  ) bv32769[16]  ) ) (bvuge (bvadd (bvadd (bvmul bv65535[16]  x97 ) x98 ) bv32768[16]  ) bv32769[16]  ) ) (bvuge (bvadd (bvadd (bvmul bv65535[16]  x0 ) x46 ) bv32768[16]  ) bv32769[16]  ) ) (bvule (bvadd (bvadd (bvmul bv65535[16]  x7 ) x8 ) bv32768[16]  ) bv32768[16]  ) ) (bvuge (bvadd (bvadd (bvmul bv65535[16]  x0 ) x32 ) bv32768[16]  ) bv32770[16]  ) ) (bvule (bvadd (bvadd (bvmul bv65535[16]  x41 ) x46 ) bv32768[16]  ) bv32768[16]  ) ) (bvule (bvadd (bvadd (bvmul bv65535[16]  x0 ) x19 ) bv32768[16]  ) bv32768[16]  ) ) (bvule (bvadd (bvadd (bvmul bv65535[16]  x0 ) x62 ) bv32768[16]  ) bv32768[16]  ) ) (bvule (bvadd (bvadd (bvmul bv65535[16]  x0 ) x22 ) bv32768[16]  ) bv32768[16]  ) ) (bvule (bvadd (bvadd (bvmul bv65535[16]  x0 ) x81 ) bv32768[16]  ) bv32768[16]  ) ) (bvule (bvadd (bvadd (bvmul bv65535[16]  x0 ) x24 ) bv32768[16]  ) bv32768[16]  ) ) (bvule (bvadd (bvadd (bvmul bv65535[16]  x0 ) x43 ) bv32768[16]  ) bv32768[16]  ) ) (bvule (bvadd (bvadd (bvmul bv65535[16]  x0 ) x55 ) bv32768[16]  ) bv32768[16]  ) ) (bvule (bvadd (bvadd (bvmul bv65535[16]  x0 ) x53 ) bv32768[16]  ) bv32768[16]  ) ) (bvule (bvadd (bvadd (bvmul bv65535[16]  x0 ) x94 ) bv32768[16]  ) bv32768[16]  ) ) (bvule (bvadd (bvadd (bvmul bv65535[16]  x0 ) x5 ) bv32768[16]  ) bv32768[16]  ) ) (bvule (bvadd (bvadd (bvmul bv65535[16]  x0 ) x29 ) bv32768[16]  ) bv32768[16]  ) ) (bvule (bvadd (bvadd (bvmul bv65535[16]  x0 ) x78 ) bv32768[16]  ) bv32768[16]  ) ) (bvule (bvadd (bvadd (bvmul bv65535[16]  x0 ) x21 ) bv32768[16]  ) bv32785[16]  ) ) (bvule (bvadd (bvadd (bvmul bv65535[16]  x0 ) x51 ) bv32768[16]  ) bv33276[16]  ) ) (bvule (bvadd (bvadd (bvmul bv65535[16]  x0 ) x27 ) bv32768[16]  ) bv32785[16]  ) ) (bvule (bvadd (bvadd (bvmul bv65535[16]  x0 ) x61 ) bv32768[16]  ) bv33276[16]  ) ) (bvule (bvadd (bvadd (bvmul bv65535[16]  x0 ) x58 ) bv32768[16]  ) bv33276[16]  ) ) (bvule (bvadd (bvadd (bvmul bv65535[16]  x0 ) x80 ) bv32768[16]  ) bv32780[16]  ) ) (= (bvadd (bvmul bv1[16]  x13 ) (bvmul bv65535[16]  x3 ) ) bv0[16]  ) ) (= (bvadd (bvmul bv65535[16]  x0 ) (bvmul bv1[16]  x14 ) ) bv0[16]  ) ) (= (bvadd (bvmul bv65535[16]  x0 ) (bvmul bv1[16]  x16 ) ) bv0[16]  ) ) (not (= (bvadd (bvmul bv65535[16]  x0 ) (bvmul bv1[16]  x18 ) ) bv0[16]  )) ) (not (= (bvadd (bvmul bv65535[16]  x0 ) (bvmul bv1[16]  x28 ) ) bv0[16]  )) ) (not (= (bvadd (bvmul bv65535[16]  x0 ) (bvmul bv1[16]  x4 ) ) bv8192[16]  )) ) (= (bvadd (bvmul bv65535[16]  x0 ) (bvmul bv1[16]  x69 ) ) bv0[16]  ) ) (= (bvadd (bvmul bv65535[16]  x0 ) (bvmul bv1[16]  x74 ) ) bv510[16]  ) ) (not (= (bvadd (bvmul bv65535[16]  x0 ) (bvmul bv1[16]  x77 ) ) bv8192[16]  )) ) (= (bvadd (bvmul bv65535[16]  x0 ) (bvmul bv1[16]  x88 ) ) bv0[16]  ) ) (not (= (bvadd (bvmul bv65535[16]  x0 ) (bvmul bv1[16]  x93 ) ) bv0[16]  )) ) (= (bvadd (bvmul bv65535[16]  x47 ) (bvmul bv1[16]  x48 ) ) bv65534[16]  ) ) (= (bvadd (bvmul bv65535[16]  x45 ) (bvmul bv1[16]  x50 ) ) bv1[16]  ) ) (= (bvadd (bvmul bv65535[16]  x3 ) (bvmul bv1[16]  x4 ) ) bv1[16]  ) ) (= (bvadd (bvmul bv65535[16]  x36 ) (bvmul bv1[16]  x37 ) ) bv20[16]  ) ) (= (bvadd (bvmul bv65535[16]  x0 ) (bvmul bv1[16]  x3 ) ) bv0[16]  ) ) (= (bvadd (bvmul bv65535[16]  x34 ) (bvmul bv1[16]  x35 ) ) bv3[16]  ) ) (= (bvadd (bvmul bv65535[16]  x8 ) (bvmul bv1[16]  x9 ) ) bv65535[16]  ) ) (= (bvadd (bvmul bv65535[16]  x1 ) (bvmul bv1[16]  x2 ) ) bv1[16]  ) ) (= (bvadd (bvmul bv65535[16]  x0 ) (bvmul bv1[16]  x20 ) ) bv0[16]  ) ) (= (bvadd (bvmul bv65535[16]  x20 ) (bvmul bv1[16]  x49 ) ) bv1[16]  ) ) (= (bvadd (bvmul bv65535[16]  x38 ) (bvmul bv1[16]  x39 ) ) bv65535[16]  ) ) (= (bvadd (bvmul bv65535[16]  x42 ) (bvmul bv1[16]  x44 ) ) bv1[16]  ) ) (= (bvadd (bvmul bv65535[16]  x38 ) (bvmul bv1[16]  x41 ) ) bv65534[16]  ) ) (= (bvadd (bvmul bv65535[16]  x13 ) (bvmul bv1[16]  x77 ) ) bv1[16]  ) ) (= (bvadd (bvmul bv65535[16]  x59 ) (bvmul bv1[16]  x60 ) ) bv65535[16]  ) ) (= (bvadd (bvmul bv65535[16]  x74 ) (bvmul bv1[16]  x79 ) ) bv65283[16]  ) ) (= (bvadd (bvmul bv1[16]  x11 ) (bvmul bv65535[16]  x110 ) ) bv65535[16]  ) ) (= (bvadd (bvmul bv65535[16]  x63 ) (bvmul bv1[16]  x74 ) ) bv0[16]  ) ) (= (bvadd (bvmul bv65535[16]  x57 ) (bvmul bv1[16]  x58 ) ) bv1[16]  ) ) (= (bvadd (bvmul bv65535[16]  x54 ) (bvmul bv1[16]  x56 ) ) bv1[16]  ) ) (= (bvadd (bvmul bv1[16]  x1 ) (bvmul bv65535[16]  x6 ) ) bv0[16]  ) ) (= (bvadd (bvmul bv65535[16]  x102 ) (bvmul bv1[16]  x12 ) ) bv0[16]  ) ) (= (bvadd (bvmul bv65535[16]  x21 ) (bvmul bv1[16]  x32 ) ) bv0[16]  ) ) (= (bvadd (bvmul bv65535[16]  x85 ) (bvmul bv1[16]  x93 ) ) bv0[16]  ) ) (= (bvadd (bvmul bv65535[16]  x93 ) (bvmul bv1[16]  x95 ) ) bv65535[16]  ) ) (= (bvadd (bvmul bv1[16]  x93 ) (bvmul bv1[16]  x96 ) ) bv0[16]  ) ) (= (bvadd (bvmul bv1[16]  x100 ) (bvmul bv65535[16]  x13 ) ) bv8191[16]  ) ) (= (bvadd (bvmul bv1[16]  x104 ) (bvmul bv65535[16]  x12 ) ) bv1[16]  ) ) (= (bvadd (bvmul bv65535[16]  x49 ) (bvmul bv1[16]  x51 ) ) bv0[16]  ) ) (= (bvadd (bvmul bv65535[16]  x0 ) (bvmul bv1[16]  x23 ) ) bv128[16]  ) ) (= (bvadd (bvmul bv65535[16]  x21 ) (bvmul bv1[16]  x26 ) ) bv0[16]  ) ) (= (bvadd (bvmul bv65535[16]  x0 ) (bvmul bv1[16]  x42 ) ) bv0[16]  ) ) (= (bvadd (bvmul bv65535[16]  x0 ) (bvmul bv1[16]  x54 ) ) bv0[16]  ) ) (= (bvadd (bvmul bv65535[16]  x63 ) (bvmul bv1[16]  x64 ) ) bv0[16]  ) ) (= (bvadd (bvmul bv65535[16]  x0 ) (bvmul bv1[16]  x67 ) ) bv8[16]  ) ) (= (bvadd (bvmul bv65535[16]  x0 ) (bvmul bv1[16]  x82 ) ) bv128[16]  ) ) (= (bvadd (bvmul bv65535[16]  x85 ) (bvmul bv1[16]  x86 ) ) bv0[16]  ) ) (= (bvadd (bvmul bv65535[16]  x98 ) (bvmul bv1[16]  x99 ) ) bv0[16]  ) ) (bvule (bvadd (bvadd (bvmul bv65535[16]  x0 ) x11 ) bv32768[16]  ) bv32768[16]  ) ) (bvule (bvadd (bvadd (bvmul bv65535[16]  x18 ) x51 ) bv32768[16]  ) bv32768[16]  ) ) (bvule (bvadd (bvadd (bvmul bv65535[16]  x0 ) x9 ) bv32768[16]  ) bv32768[16]  ) ) (bvuge (bvadd (bvadd (bvmul bv65535[16]  x0 ) x52 ) bv32768[16]  ) bv32769[16]  ) ) (bvuge (bvadd (bvadd (bvmul bv65535[16]  x0 ) x83 ) bv32768[16]  ) bv32769[16]  ) ) (bvuge (bvadd (bvadd (bvmul bv65535[16]  x0 ) x65 ) bv32768[16]  ) bv32769[16]  ) ) (bvuge (bvadd (bvadd (bvmul bv65535[16]  x0 ) x10 ) bv32768[16]  ) bv32769[16]  ) ) (bvuge (bvadd (bvadd (bvmul bv65535[16]  x0 ) x17 ) bv32768[16]  ) bv32769[16]  ) ) (bvuge (bvadd (bvadd (bvmul bv65535[16]  x0 ) x15 ) bv32768[16]  ) bv32769[16]  ) ) (bvuge (bvadd (bvadd (bvmul bv65535[16]  x0 ) x70 ) bv32768[16]  ) bv32769[16]  ) ) (bvuge (bvadd (bvadd (bvmul bv65535[16]  x0 ) x73 ) bv32768[16]  ) bv33277[16]  ) ) (bvuge (bvadd (bvadd (bvmul bv65535[16]  x0 ) x89 ) bv32768[16]  ) bv32769[16]  ) ) (bvuge (bvadd (bvadd (bvmul bv65535[16]  x0 ) x92 ) bv32768[16]  ) bv32781[16]  ) ) (bvule (bvadd (bvadd (bvmul bv65535[16]  x0 ) x39 ) bv32768[16]  ) bv32768[16]  ) ) (bvuge (bvadd (bvadd (bvmul bv65535[16]  x0 ) x40 ) bv32768[16]  ) bv32769[16]  ) ) (bvuge (bvadd (bvadd (bvmul bv65535[16]  x0 ) x74 ) bv32768[16]  ) bv33023[16]  ) ) (bvuge (bvadd (bvadd (bvmul bv65535[16]  x0 ) x75 ) bv32768[16]  ) bv32769[16]  ) ) (bvuge (bvadd (bvadd (bvmul bv65535[16]  x0 ) x76 ) bv32768[16]  ) bv32769[16]  ) ) (= (bvadd (bvmul bv65535[16]  x0 ) (bvmul bv1[16]  x38 ) ) bv1[16]  ) )

)
